NAME: I20679-n89-k6
COMMENT : (Fake et al, No of trucks: 6, Optimal value: )
TYPE : CVRP
DIMENSION : 89
EDGE_WEIGHT_TYPE : EUC_2D
CAPACITY : 18
NODE_COORD_SECTION
1 772 806
2 783 566
3 128 51
4 466 329
5 656 95
6 697 337
7 45 732
8 385 724
9 738 736
10 946 458
11 993 148
12 465 193
13 808 176
14 713 434
15 839 642
16 593 72
17 967 586
18 583 911
19 26 436
20 17 734
21 691 533
22 325 871
23 594 99
24 224 448
25 154 138
26 520 502
27 550 337
28 407 320
29 510 562
30 859 776
31 840 583
32 289 208
33 405 489
34 74 719
35 465 816
36 507 642
37 606 207
38 454 23
39 565 893
40 547 593
41 892 451
42 692 77
43 501 110
44 412 434
45 380 896
46 965 118
47 799 384
48 253 415
49 339 285
50 227 688
51 395 522
52 455 684
53 220 135
54 467 429
55 446 147
56 456 155
57 590 635
58 696 504
59 829 137
60 991 814
61 130 546
62 965 474
63 914 953
64 653 634
65 875 908
66 442 554
67 300 610
68 987 524
69 997 743
70 875 891
71 815 433
72 18 105
73 634 239
74 836 840
75 626 738
76 471 575
77 609 94
78 128 35
79 165 31
80 291 311
81 133 290
82 633 536
83 451 754
84 945 756
85 583 5
86 647 514
87 541 721
88 302 895
89 873 490
DEMAND_SECTION
1 0
2 1
3 1
4 1
5 1
6 1
7 1
8 1
9 1
10 1
11 1
12 1
13 1
14 1
15 1
16 1
17 1
18 1
19 1
20 1
21 1
22 1
23 1
24 1
25 1
26 1
27 1
28 1
29 1
30 1
31 1
32 1
33 1
34 1
35 1
36 1
37 1
38 1
39 1
40 1
41 1
42 1
43 1
44 1
45 1
46 1
47 1
48 1
49 1
50 1
51 1
52 1
53 1
54 1
55 1
56 1
57 1
58 1
59 1
60 1
61 1
62 1
63 1
64 1
65 1
66 1
67 1
68 1
69 1
70 1
71 1
72 1
73 1
74 1
75 1
76 1
77 1
78 1
79 1
80 1
81 1
82 1
83 1
84 1
85 1
86 1
87 1
88 1
89 1
DEPOT_SECTION
 1
 -1
 EOF 